*SENSE:Maximize
NAME          MODEL
ROWS
 N  OBJ
 L  C0000000
COLUMNS
    MARK      'MARKER'                 'INTORG'
    X0000000  C0000000   1.090000000000e+04
    X0000000  OBJ        1.090000000000e+04
    MARK      'MARKER'                 'INTEND'
RHS
    RHS       C0000000   3.300000000000e+04
BOUNDS
 BV BND       X0000000
ENDATA
